B5 C2 N5
 1.000000
    0.0000000000000000   4.2539169385999998   0.0000000000000000
    0.0000000000000000   0.0000000000000000 -14.0000000000000000
   -7.3680002687999977  -0.0000000000000018   0.0000000000000000
B C N
5 2 5
Direct
  0.0000000000000000 0.5000000000000000 0.3333333333333334 B
  0.9999999999999998 0.5000000000000000 0.6666666666666665 B
  0.1666666540000001 0.5000000000000000 0.8333333493333334 B
  0.6666666540000002 0.5000000000000000 0.3333333493333334 B
  0.6666666539999997 0.5000000000000000 0.6666666826666665 B
  0.0000000000000000 0.5000000000000000 0.0000000000000000 C
  0.1666666540000000 0.5000000000000000 0.1666666826666667 C
  0.5000000000000000 0.5000000000000000 0.1666666666666667 N
  0.4999999999999998 0.5000000000000000 0.4999999999999999 N
  0.4999999999999997 0.5000000000000000 0.8333333333333333 N
  0.6666666540000000 0.5000000000000000 0.0000000160000000 N
  0.1666666539999997 0.5000000000000000 0.5000000159999999 N
